100
128
20
39
47
2
48
38
6
60
10
58
13
19
28
27
37
35
3
7
13
53
63
12
61
52
15
30
25
45
46
59
32
27
15
38
58
23
27
8
37
60
39
27
28
3
34
59
45
2
21
14
24
15
25
49
12
14
29
5
19
55
46
27
35
36
33
24
38
30
15
45
24
19
18
63
28
18
23
39
59
20
26
52
18
55
54
41
25
21
33
15
60
4
26
46
47
61
63
42
35
5